123 5
10 10 10 10 10 

0 0 0 0 0 0 1 2 
0 0 0 0 0 0 3 3 8 12 
1 0 1 0 0 0 2 11 4 
1 0 2 0 0 0 1 5 
6 0 4 0 0 0 1 6 
6 0 9 0 0 0 1 7 
6 0 4 0 0 0 1 9 
2 0 6 0 0 0 1 9 
9 0 4 0 0 0 1 10 
3 0 6 0 0 0 1 13 
10 0 6 0 0 0 1 13 
6 0 8 0 0 0 1 13 
0 0 0 0 0 0 1 14 
0 0 0 0 0 0 2 15 16 
9 0 0 3 0 0 1 17 
2 0 0 2 0 0 1 17 
3 0 0 3 0 0 1 18 
3 0 0 3 0 0 2 21 19 
7 0 0 10 0 0 1 20 
7 0 0 4 0 0 1 22 
2 0 0 7 0 0 1 22 
4 0 0 6 0 0 2 24 23 
9 0 0 6 0 0 1 25 
1 0 0 6 0 0 1 25 
0 0 0 0 0 0 1 26 
0 0 0 0 0 0 3 27 32 34 
3 0 0 0 0 1 2 36 28 
6 0 0 0 0 6 1 29 
1 0 0 0 0 7 1 30 
10 0 0 0 0 7 1 31 
2 0 0 0 0 7 1 33 
6 0 0 0 0 7 1 33 
7 0 0 0 0 3 1 35 
7 0 0 0 0 6 1 35 
4 0 0 0 0 2 1 37 
2 0 0 0 0 4 1 37 
0 0 0 0 0 0 2 38 50 
0 0 0 0 0 0 2 39 41 
6 0 0 1 0 0 2 43 40 
5 0 0 6 0 0 1 42 
3 0 0 7 0 0 1 42 
4 0 0 6 0 0 2 45 44 
9 0 0 8 0 0 2 45 44 
8 0 0 2 0 0 1 46 
2 0 0 4 0 0 1 46 
9 0 0 5 0 0 1 47 
3 0 0 5 0 0 1 48 
7 0 0 6 0 0 1 49 
0 0 0 0 0 0 1 62 
0 0 0 0 0 0 1 51 
1 0 1 0 0 0 2 53 52 
1 0 2 0 0 0 3 60 57 55 
7 0 4 0 0 0 1 54 
9 0 3 0 0 0 2 57 55 
1 0 9 0 0 0 1 56 
6 0 5 0 0 0 1 58 
1 0 7 0 0 0 1 58 
9 0 5 0 0 0 1 59 
4 0 8 0 0 0 1 61 
6 0 6 0 0 0 1 61 
0 0 0 0 0 0 1 62 
0 0 0 0 0 0 5 63 75 87 99 111 
0 0 0 0 0 0 2 64 65 
5 0 0 1 0 0 2 69 67 
9 0 0 10 0 0 1 66 
1 0 0 7 0 0 1 67 
9 0 0 2 0 0 1 68 
3 0 0 3 0 0 2 73 70 
5 0 0 2 0 0 1 70 
7 0 0 5 0 0 1 71 
5 0 0 6 0 0 1 72 
10 0 0 8 0 0 1 74 
6 0 0 6 0 0 1 74 
0 0 0 0 0 0 1 123 
0 0 0 0 0 0 2 76 82 
2 0 0 0 1 0 2 85 77 
8 0 0 0 7 0 1 78 
10 0 0 0 5 0 2 84 79 
10 0 0 0 6 0 1 80 
3 0 0 0 7 0 1 81 
3 0 0 0 4 0 1 83 
5 0 0 0 4 0 1 84 
7 0 0 0 5 0 1 86 
5 0 0 0 8 0 1 86 
10 0 0 0 3 0 1 86 
0 0 0 0 0 0 1 123 
0 0 0 0 0 0 2 88 92 
3 0 0 2 0 0 1 89 
2 0 0 4 0 0 2 95 90 
4 0 0 5 0 0 1 91 
2 0 0 3 0 0 1 93 
2 0 0 4 0 0 1 93 
8 0 0 3 0 0 2 97 94 
9 0 0 8 0 0 1 96 
7 0 0 7 0 0 1 96 
2 0 0 10 0 0 1 98 
8 0 0 4 0 0 1 98 
0 0 0 0 0 0 1 123 
0 0 0 0 0 0 1 100 
9 1 0 0 0 0 2 105 101 
9 4 0 0 0 0 1 102 
1 3 0 0 0 0 1 103 
10 8 0 0 0 0 2 106 104 
3 6 0 0 0 0 2 109 107 
10 7 0 0 0 0 2 109 107 
9 7 0 0 0 0 2 109 108 
1 3 0 0 0 0 1 108 
2 5 0 0 0 0 1 110 
6 6 0 0 0 0 1 110 
0 0 0 0 0 0 1 123 
0 0 0 0 0 0 2 112 121 
1 0 0 0 1 0 3 120 119 113 
7 0 0 0 8 0 1 114 
6 0 0 0 4 0 1 115 
10 0 0 0 7 0 1 116 
3 0 0 0 4 0 1 117 
1 0 0 0 8 0 1 118 
3 0 0 0 1 0 1 122 
9 0 0 0 4 0 1 122 
10 0 0 0 7 0 1 122 
7 0 0 0 6 0 1 122 
0 0 0 0 0 0 1 123 
0 0 0 0 0 0 0 
